
Gurobi 8.0.1 (linux64, Python) logging started Tue 18 Dec 2018 05:31:57 PM EST

Academic license - for non-commercial use only

Gurobi 8.0.1 (linux64, Python) logging started Tue 18 Dec 2018 07:20:05 PM EST

Academic license - for non-commercial use only
